c (Instancias/DC1/mv1) RCPSP to CNF, method 0.
p cnf 171 353
166 0
167 0
13 0
26 0
38 0
168 0
169 0
170 0
51 0
64 0
65 0
171 0
-1 2 0
-2 3 0
-3 4 0
-4 5 0
-5 6 0
-6 7 0
-7 8 0
-8 9 0
-9 10 0
-10 11 0
-11 12 0
-12 13 0
-14 15 0
-15 16 0
-16 17 0
-17 18 0
-18 19 0
-19 20 0
-20 21 0
-21 22 0
-22 23 0
-23 24 0
-24 25 0
-25 26 0
-27 28 0
-28 29 0
-29 30 0
-30 31 0
-31 32 0
-32 33 0
-33 34 0
-34 35 0
-35 36 0
-36 37 0
-37 38 0
-39 40 0
-40 41 0
-41 42 0
-42 43 0
-43 44 0
-44 45 0
-45 46 0
-46 47 0
-47 48 0
-48 49 0
-49 50 0
-50 51 0
-52 53 0
-53 54 0
-54 55 0
-55 56 0
-56 57 0
-57 58 0
-58 59 0
-59 60 0
-60 61 0
-61 62 0
-62 63 0
-63 64 0
-66 1 0
66 -1 0
-67 2 0
67 -2 0
-68 3 0
68 -3 0
-69 4 0
69 -4 0
-70 5 0
-70 -1 0
70 -5 1 0
-71 6 0
-71 -2 0
71 -6 2 0
-72 7 0
-72 -3 0
72 -7 3 0
-73 8 0
-73 -4 0
73 -8 4 0
-74 9 0
-74 -5 0
74 -9 5 0
-75 10 0
-75 -6 0
75 -10 6 0
-76 11 0
-76 -7 0
76 -11 7 0
-77 12 0
-77 -8 0
77 -12 8 0
-78 13 0
-78 -9 0
78 9 0
-79 -10 0
79 10 0
-80 -11 0
80 11 0
-81 -12 0
81 12 0
-82 14 0
82 -14 0
-83 15 0
83 -15 0
-84 16 0
84 -16 0
-85 17 0
85 -17 0
-86 18 0
86 -18 0
-87 19 0
87 -19 0
-88 20 0
-88 -14 0
88 -20 14 0
-89 21 0
-89 -15 0
89 -21 15 0
-90 22 0
-90 -16 0
90 -22 16 0
-91 23 0
-91 -17 0
91 -23 17 0
-92 24 0
-92 -18 0
92 -24 18 0
-93 25 0
-93 -19 0
93 -25 19 0
-94 26 0
-94 -20 0
94 20 0
-95 -21 0
95 21 0
-96 -22 0
96 22 0
-97 -23 0
97 23 0
-98 -24 0
98 24 0
-99 -25 0
99 25 0
-100 27 0
100 -27 0
-101 28 0
101 -28 0
-102 29 0
102 -29 0
-103 30 0
103 -30 0
-104 31 0
104 -31 0
-105 32 0
105 -32 0
-106 33 0
106 -33 0
-107 34 0
107 -34 0
-108 35 0
108 -35 0
-109 36 0
-109 -27 0
109 -36 27 0
-110 37 0
-110 -28 0
110 -37 28 0
-111 38 0
-111 -29 0
111 29 0
-112 -30 0
112 30 0
-113 -31 0
113 31 0
-114 -32 0
114 32 0
-115 -33 0
115 33 0
-116 -34 0
116 34 0
-117 -35 0
117 35 0
-118 -36 0
118 36 0
-119 -37 0
119 37 0
120 0
121 0
122 0
123 0
124 0
125 0
126 0
127 0
128 0
129 0
130 0
131 0
132 0
-133 39 0
133 -39 0
-134 40 0
134 -40 0
-135 41 0
135 -41 0
-136 42 0
-136 -39 0
136 -42 39 0
-137 43 0
-137 -40 0
137 -43 40 0
-138 44 0
-138 -41 0
138 -44 41 0
-139 45 0
-139 -42 0
139 -45 42 0
-140 46 0
-140 -43 0
140 -46 43 0
-141 47 0
-141 -44 0
141 -47 44 0
-142 48 0
-142 -45 0
142 -48 45 0
-143 49 0
-143 -46 0
143 -49 46 0
-144 50 0
-144 -47 0
144 -50 47 0
-145 51 0
-145 -48 0
145 48 0
-146 -49 0
146 49 0
-147 -50 0
147 50 0
-148 52 0
148 -52 0
-149 53 0
149 -53 0
-150 54 0
150 -54 0
-151 55 0
151 -55 0
-152 56 0
152 -56 0
-153 57 0
-153 -52 0
153 -57 52 0
-154 58 0
-154 -53 0
154 -58 53 0
-155 59 0
-155 -54 0
155 -59 54 0
-156 60 0
-156 -55 0
156 -60 55 0
-157 61 0
-157 -56 0
157 -61 56 0
-158 62 0
-158 -57 0
158 -62 57 0
-159 63 0
-159 -58 0
159 -63 58 0
-160 64 0
-160 -59 0
160 59 0
-161 -60 0
161 60 0
-162 -61 0
162 61 0
-163 -62 0
163 62 0
-164 -63 0
164 63 0
-165 65 0
165 0
-52 1 0
-53 2 0
-54 3 0
-55 4 0
-56 5 0
-57 6 0
-58 7 0
-59 8 0
-60 9 0
-61 10 0
-62 11 0
-63 12 0
-64 13 0
-39 14 0
-40 15 0
-41 16 0
-42 17 0
-43 18 0
-44 19 0
-45 20 0
-46 21 0
-47 22 0
-48 23 0
-49 24 0
-50 25 0
-51 26 0
-65 38 0
-120 -102 0
-121 -103 0
-148 -122 0
-148 -104 0
-122 -104 0
-149 -123 0
-149 -105 0
-123 -105 0
-150 -124 0
-150 -106 0
-124 -106 0
-151 -107 0
-152 -108 0
-153 -109 0
-154 -110 0
-137 -125 0
-155 -111 0
-138 -126 0
-156 -112 0
-139 -127 0
-157 -113 0
-140 -128 0
-158 -114 0
-141 -129 0
-159 -115 0
-142 -130 0
-160 -116 0
-143 -131 0
-161 -117 0
-162 -118 0
-163 -119 0
