c conversão 8 damas para CNF, método 2.
p cnf 512 964
65 -66 0
66 -67 0
67 -68 0
68 -69 0
69 -70 0
70 -71 0
71 -72 0
72 -73 0
65 0
-73 0
-1 65 0
-1 -66 0
-65 66 1 0
-2 66 0
-2 -67 0
-66 67 2 0
-3 67 0
-3 -68 0
-67 68 3 0
-4 68 0
-4 -69 0
-68 69 4 0
-5 69 0
-5 -70 0
-69 70 5 0
-6 70 0
-6 -71 0
-70 71 6 0
-7 71 0
-7 -72 0
-71 72 7 0
-8 72 0
-8 -73 0
-72 73 8 0
1 9 17 25 33 41 49 57 0
-1 74 0
-9 75 0
-17 76 0
-25 77 0
-33 78 0
-41 79 0
-49 80 0
-57 81 0
-74 75 0
-75 76 0
-76 77 0
-77 78 0
-78 79 0
-79 80 0
-80 81 0
-9 -74 82 0
-17 -75 83 0
-25 -76 84 0
-33 -77 85 0
-41 -78 86 0
-49 -79 87 0
-57 -80 88 0
-89 0
-82 0
-83 0
-84 0
-85 0
-86 0
-87 0
-88 0
90 -91 0
91 -92 0
92 -93 0
93 -94 0
94 -95 0
95 -96 0
96 -97 0
97 -98 0
90 0
-98 0
-9 90 0
-9 -91 0
-90 91 9 0
-10 91 0
-10 -92 0
-91 92 10 0
-11 92 0
-11 -93 0
-92 93 11 0
-12 93 0
-12 -94 0
-93 94 12 0
-13 94 0
-13 -95 0
-94 95 13 0
-14 95 0
-14 -96 0
-95 96 14 0
-15 96 0
-15 -97 0
-96 97 15 0
-16 97 0
-16 -98 0
-97 98 16 0
2 10 18 26 34 42 50 58 0
-2 99 0
-10 100 0
-18 101 0
-26 102 0
-34 103 0
-42 104 0
-50 105 0
-58 106 0
-99 100 0
-100 101 0
-101 102 0
-102 103 0
-103 104 0
-104 105 0
-105 106 0
-10 -99 107 0
-18 -100 108 0
-26 -101 109 0
-34 -102 110 0
-42 -103 111 0
-50 -104 112 0
-58 -105 113 0
-114 0
-107 0
-108 0
-109 0
-110 0
-111 0
-112 0
-113 0
115 -116 0
116 -117 0
117 -118 0
118 -119 0
119 -120 0
120 -121 0
121 -122 0
122 -123 0
115 0
-123 0
-17 115 0
-17 -116 0
-115 116 17 0
-18 116 0
-18 -117 0
-116 117 18 0
-19 117 0
-19 -118 0
-117 118 19 0
-20 118 0
-20 -119 0
-118 119 20 0
-21 119 0
-21 -120 0
-119 120 21 0
-22 120 0
-22 -121 0
-120 121 22 0
-23 121 0
-23 -122 0
-121 122 23 0
-24 122 0
-24 -123 0
-122 123 24 0
3 11 19 27 35 43 51 59 0
-3 124 0
-11 125 0
-19 126 0
-27 127 0
-35 128 0
-43 129 0
-51 130 0
-59 131 0
-124 125 0
-125 126 0
-126 127 0
-127 128 0
-128 129 0
-129 130 0
-130 131 0
-11 -124 132 0
-19 -125 133 0
-27 -126 134 0
-35 -127 135 0
-43 -128 136 0
-51 -129 137 0
-59 -130 138 0
-139 0
-132 0
-133 0
-134 0
-135 0
-136 0
-137 0
-138 0
140 -141 0
141 -142 0
142 -143 0
143 -144 0
144 -145 0
145 -146 0
146 -147 0
147 -148 0
140 0
-148 0
-25 140 0
-25 -141 0
-140 141 25 0
-26 141 0
-26 -142 0
-141 142 26 0
-27 142 0
-27 -143 0
-142 143 27 0
-28 143 0
-28 -144 0
-143 144 28 0
-29 144 0
-29 -145 0
-144 145 29 0
-30 145 0
-30 -146 0
-145 146 30 0
-31 146 0
-31 -147 0
-146 147 31 0
-32 147 0
-32 -148 0
-147 148 32 0
4 12 20 28 36 44 52 60 0
-4 149 0
-12 150 0
-20 151 0
-28 152 0
-36 153 0
-44 154 0
-52 155 0
-60 156 0
-149 150 0
-150 151 0
-151 152 0
-152 153 0
-153 154 0
-154 155 0
-155 156 0
-12 -149 157 0
-20 -150 158 0
-28 -151 159 0
-36 -152 160 0
-44 -153 161 0
-52 -154 162 0
-60 -155 163 0
-164 0
-157 0
-158 0
-159 0
-160 0
-161 0
-162 0
-163 0
165 -166 0
166 -167 0
167 -168 0
168 -169 0
169 -170 0
170 -171 0
171 -172 0
172 -173 0
165 0
-173 0
-33 165 0
-33 -166 0
-165 166 33 0
-34 166 0
-34 -167 0
-166 167 34 0
-35 167 0
-35 -168 0
-167 168 35 0
-36 168 0
-36 -169 0
-168 169 36 0
-37 169 0
-37 -170 0
-169 170 37 0
-38 170 0
-38 -171 0
-170 171 38 0
-39 171 0
-39 -172 0
-171 172 39 0
-40 172 0
-40 -173 0
-172 173 40 0
5 13 21 29 37 45 53 61 0
-5 174 0
-13 175 0
-21 176 0
-29 177 0
-37 178 0
-45 179 0
-53 180 0
-61 181 0
-174 175 0
-175 176 0
-176 177 0
-177 178 0
-178 179 0
-179 180 0
-180 181 0
-13 -174 182 0
-21 -175 183 0
-29 -176 184 0
-37 -177 185 0
-45 -178 186 0
-53 -179 187 0
-61 -180 188 0
-189 0
-182 0
-183 0
-184 0
-185 0
-186 0
-187 0
-188 0
190 -191 0
191 -192 0
192 -193 0
193 -194 0
194 -195 0
195 -196 0
196 -197 0
197 -198 0
190 0
-198 0
-41 190 0
-41 -191 0
-190 191 41 0
-42 191 0
-42 -192 0
-191 192 42 0
-43 192 0
-43 -193 0
-192 193 43 0
-44 193 0
-44 -194 0
-193 194 44 0
-45 194 0
-45 -195 0
-194 195 45 0
-46 195 0
-46 -196 0
-195 196 46 0
-47 196 0
-47 -197 0
-196 197 47 0
-48 197 0
-48 -198 0
-197 198 48 0
6 14 22 30 38 46 54 62 0
-6 199 0
-14 200 0
-22 201 0
-30 202 0
-38 203 0
-46 204 0
-54 205 0
-62 206 0
-199 200 0
-200 201 0
-201 202 0
-202 203 0
-203 204 0
-204 205 0
-205 206 0
-14 -199 207 0
-22 -200 208 0
-30 -201 209 0
-38 -202 210 0
-46 -203 211 0
-54 -204 212 0
-62 -205 213 0
-214 0
-207 0
-208 0
-209 0
-210 0
-211 0
-212 0
-213 0
215 -216 0
216 -217 0
217 -218 0
218 -219 0
219 -220 0
220 -221 0
221 -222 0
222 -223 0
215 0
-223 0
-49 215 0
-49 -216 0
-215 216 49 0
-50 216 0
-50 -217 0
-216 217 50 0
-51 217 0
-51 -218 0
-217 218 51 0
-52 218 0
-52 -219 0
-218 219 52 0
-53 219 0
-53 -220 0
-219 220 53 0
-54 220 0
-54 -221 0
-220 221 54 0
-55 221 0
-55 -222 0
-221 222 55 0
-56 222 0
-56 -223 0
-222 223 56 0
7 15 23 31 39 47 55 63 0
-7 224 0
-15 225 0
-23 226 0
-31 227 0
-39 228 0
-47 229 0
-55 230 0
-63 231 0
-224 225 0
-225 226 0
-226 227 0
-227 228 0
-228 229 0
-229 230 0
-230 231 0
-15 -224 232 0
-23 -225 233 0
-31 -226 234 0
-39 -227 235 0
-47 -228 236 0
-55 -229 237 0
-63 -230 238 0
-239 0
-232 0
-233 0
-234 0
-235 0
-236 0
-237 0
-238 0
240 -241 0
241 -242 0
242 -243 0
243 -244 0
244 -245 0
245 -246 0
246 -247 0
247 -248 0
240 0
-248 0
-57 240 0
-57 -241 0
-240 241 57 0
-58 241 0
-58 -242 0
-241 242 58 0
-59 242 0
-59 -243 0
-242 243 59 0
-60 243 0
-60 -244 0
-243 244 60 0
-61 244 0
-61 -245 0
-244 245 61 0
-62 245 0
-62 -246 0
-245 246 62 0
-63 246 0
-63 -247 0
-246 247 63 0
-64 247 0
-64 -248 0
-247 248 64 0
8 16 24 32 40 48 56 64 0
-8 249 0
-16 250 0
-24 251 0
-32 252 0
-40 253 0
-48 254 0
-56 255 0
-64 256 0
-249 250 0
-250 251 0
-251 252 0
-252 253 0
-253 254 0
-254 255 0
-255 256 0
-16 -249 257 0
-24 -250 258 0
-32 -251 259 0
-40 -252 260 0
-48 -253 261 0
-56 -254 262 0
-64 -255 263 0
-264 0
-257 0
-258 0
-259 0
-260 0
-261 0
-262 0
-263 0
-49 265 0
-58 266 0
-265 266 0
-58 -265 267 0
-268 0
-267 0
-41 269 0
-50 270 0
-59 271 0
-269 270 0
-270 271 0
-50 -269 272 0
-59 -270 273 0
-274 0
-272 0
-273 0
-33 275 0
-42 276 0
-51 277 0
-60 278 0
-275 276 0
-276 277 0
-277 278 0
-42 -275 279 0
-51 -276 280 0
-60 -277 281 0
-282 0
-279 0
-280 0
-281 0
-25 283 0
-34 284 0
-43 285 0
-52 286 0
-61 287 0
-283 284 0
-284 285 0
-285 286 0
-286 287 0
-34 -283 288 0
-43 -284 289 0
-52 -285 290 0
-61 -286 291 0
-292 0
-288 0
-289 0
-290 0
-291 0
-17 293 0
-26 294 0
-35 295 0
-44 296 0
-53 297 0
-62 298 0
-293 294 0
-294 295 0
-295 296 0
-296 297 0
-297 298 0
-26 -293 299 0
-35 -294 300 0
-44 -295 301 0
-53 -296 302 0
-62 -297 303 0
-304 0
-299 0
-300 0
-301 0
-302 0
-303 0
-9 305 0
-18 306 0
-27 307 0
-36 308 0
-45 309 0
-54 310 0
-63 311 0
-305 306 0
-306 307 0
-307 308 0
-308 309 0
-309 310 0
-310 311 0
-18 -305 312 0
-27 -306 313 0
-36 -307 314 0
-45 -308 315 0
-54 -309 316 0
-63 -310 317 0
-318 0
-312 0
-313 0
-314 0
-315 0
-316 0
-317 0
-1 319 0
-10 320 0
-19 321 0
-28 322 0
-37 323 0
-46 324 0
-55 325 0
-64 326 0
-319 320 0
-320 321 0
-321 322 0
-322 323 0
-323 324 0
-324 325 0
-325 326 0
-10 -319 327 0
-19 -320 328 0
-28 -321 329 0
-37 -322 330 0
-46 -323 331 0
-55 -324 332 0
-64 -325 333 0
-334 0
-327 0
-328 0
-329 0
-330 0
-331 0
-332 0
-333 0
-2 335 0
-11 336 0
-20 337 0
-29 338 0
-38 339 0
-47 340 0
-56 341 0
-335 336 0
-336 337 0
-337 338 0
-338 339 0
-339 340 0
-340 341 0
-11 -335 342 0
-20 -336 343 0
-29 -337 344 0
-38 -338 345 0
-47 -339 346 0
-56 -340 347 0
-348 0
-342 0
-343 0
-344 0
-345 0
-346 0
-347 0
-2 349 0
-9 350 0
-349 350 0
-9 -349 351 0
-352 0
-351 0
-3 353 0
-12 354 0
-21 355 0
-30 356 0
-39 357 0
-48 358 0
-353 354 0
-354 355 0
-355 356 0
-356 357 0
-357 358 0
-12 -353 359 0
-21 -354 360 0
-30 -355 361 0
-39 -356 362 0
-48 -357 363 0
-364 0
-359 0
-360 0
-361 0
-362 0
-363 0
-3 365 0
-10 366 0
-17 367 0
-365 366 0
-366 367 0
-10 -365 368 0
-17 -366 369 0
-370 0
-368 0
-369 0
-4 371 0
-13 372 0
-22 373 0
-31 374 0
-40 375 0
-371 372 0
-372 373 0
-373 374 0
-374 375 0
-13 -371 376 0
-22 -372 377 0
-31 -373 378 0
-40 -374 379 0
-380 0
-376 0
-377 0
-378 0
-379 0
-4 381 0
-11 382 0
-18 383 0
-25 384 0
-381 382 0
-382 383 0
-383 384 0
-11 -381 385 0
-18 -382 386 0
-25 -383 387 0
-388 0
-385 0
-386 0
-387 0
-5 389 0
-14 390 0
-23 391 0
-32 392 0
-389 390 0
-390 391 0
-391 392 0
-14 -389 393 0
-23 -390 394 0
-32 -391 395 0
-396 0
-393 0
-394 0
-395 0
-5 397 0
-12 398 0
-19 399 0
-26 400 0
-33 401 0
-397 398 0
-398 399 0
-399 400 0
-400 401 0
-12 -397 402 0
-19 -398 403 0
-26 -399 404 0
-33 -400 405 0
-406 0
-402 0
-403 0
-404 0
-405 0
-6 407 0
-15 408 0
-24 409 0
-407 408 0
-408 409 0
-15 -407 410 0
-24 -408 411 0
-412 0
-410 0
-411 0
-6 413 0
-13 414 0
-20 415 0
-27 416 0
-34 417 0
-41 418 0
-413 414 0
-414 415 0
-415 416 0
-416 417 0
-417 418 0
-13 -413 419 0
-20 -414 420 0
-27 -415 421 0
-34 -416 422 0
-41 -417 423 0
-424 0
-419 0
-420 0
-421 0
-422 0
-423 0
-7 425 0
-16 426 0
-425 426 0
-16 -425 427 0
-428 0
-427 0
-7 429 0
-14 430 0
-21 431 0
-28 432 0
-35 433 0
-42 434 0
-49 435 0
-429 430 0
-430 431 0
-431 432 0
-432 433 0
-433 434 0
-434 435 0
-14 -429 436 0
-21 -430 437 0
-28 -431 438 0
-35 -432 439 0
-42 -433 440 0
-49 -434 441 0
-442 0
-436 0
-437 0
-438 0
-439 0
-440 0
-441 0
-8 443 0
-15 444 0
-22 445 0
-29 446 0
-36 447 0
-43 448 0
-50 449 0
-57 450 0
-443 444 0
-444 445 0
-445 446 0
-446 447 0
-447 448 0
-448 449 0
-449 450 0
-15 -443 451 0
-22 -444 452 0
-29 -445 453 0
-36 -446 454 0
-43 -447 455 0
-50 -448 456 0
-57 -449 457 0
-458 0
-451 0
-452 0
-453 0
-454 0
-455 0
-456 0
-457 0
-16 459 0
-23 460 0
-30 461 0
-37 462 0
-44 463 0
-51 464 0
-58 465 0
-459 460 0
-460 461 0
-461 462 0
-462 463 0
-463 464 0
-464 465 0
-23 -459 466 0
-30 -460 467 0
-37 -461 468 0
-44 -462 469 0
-51 -463 470 0
-58 -464 471 0
-472 0
-466 0
-467 0
-468 0
-469 0
-470 0
-471 0
-24 473 0
-31 474 0
-38 475 0
-45 476 0
-52 477 0
-59 478 0
-473 474 0
-474 475 0
-475 476 0
-476 477 0
-477 478 0
-31 -473 479 0
-38 -474 480 0
-45 -475 481 0
-52 -476 482 0
-59 -477 483 0
-484 0
-479 0
-480 0
-481 0
-482 0
-483 0
-32 485 0
-39 486 0
-46 487 0
-53 488 0
-60 489 0
-485 486 0
-486 487 0
-487 488 0
-488 489 0
-39 -485 490 0
-46 -486 491 0
-53 -487 492 0
-60 -488 493 0
-494 0
-490 0
-491 0
-492 0
-493 0
-40 495 0
-47 496 0
-54 497 0
-61 498 0
-495 496 0
-496 497 0
-497 498 0
-47 -495 499 0
-54 -496 500 0
-61 -497 501 0
-502 0
-499 0
-500 0
-501 0
-48 503 0
-55 504 0
-62 505 0
-503 504 0
-504 505 0
-55 -503 506 0
-62 -504 507 0
-508 0
-506 0
-507 0
-56 509 0
-63 510 0
-509 510 0
-63 -509 511 0
-512 0
-511 0
